
Gurobi 6.5.2 (linux64) logging started Mon Aug 29 10:58:08 2016

Optimize a model with 201 rows, 3565 columns and 7217 nonzeros
Coefficient statistics:
  Matrix range    [1e+00, 2e+00]
  Objective range [1e+00, 1e+02]
  Bounds range    [1e+00, 1e+00]
  RHS range       [1e+00, 1e+00]
Found heuristic solution: objective 4014
Presolve removed 71 rows and 40 columns
Presolve time: 0.01s
Presolved: 130 rows, 3525 columns, 7071 nonzeros
Variable types: 0 continuous, 3525 integer (3525 binary)

Root relaxation: objective 9.235000e+02, 169 iterations, 0.00 seconds

    Nodes    |    Current Node    |     Objective Bounds      |     Work
 Expl Unexpl |  Obj  Depth IntInf | Incumbent    BestBd   Gap | It/Node Time

     0     0  923.50000    0   18 4014.00000  923.50000  77.0%     -    0s
H    0     0                    1037.0000000  923.50000  10.9%     -    0s
H    0     0                     935.0000000  923.50000  1.23%     -    0s
     0     0  928.00000    0   14  935.00000  928.00000  0.75%     -    0s
     0     0  928.00000    0   33  935.00000  928.00000  0.75%     -    0s
     0     0  932.00000    0   22  935.00000  932.00000  0.32%     -    0s
     0     0     cutoff    0       935.00000  934.00094  0.11%     -    0s

Cutting planes:
  Gomory: 12
  Cover: 5
  Clique: 2
  MIR: 2
  Zero half: 14

Explored 0 nodes (400 simplex iterations) in 0.08 seconds
Thread count was 8 (of 8 available processors)

Optimal solution found (tolerance 1.00e-04)
Best objective 9.350000000000e+02, best bound 9.350000000000e+02, gap 0.0%
